
Log started (V11.0.0) Mon Apr 14 18:08:00 2008

Tried aggregator 1 time.
Reduced MIP has 550 rows, 25001 columns, and 50050 nonzeros.
Presolve time =    0.19 sec.
Clique table members: 500.
MIP emphasis: balance optimality and feasibility.
MIP search method: dynamic search.
Parallel mode: none, using 1 thread.
Root relaxation solution time =    0.89 sec.

        Nodes                                         Cuts/
   Node  Left     Objective  IInf  Best Integer     Best Node    ItCnt     Gap

*     0+    0                        25222.0000       26.0635     1246   99.90%
*     0+    0                           34.0000       26.0635     1246   23.34%
      0     0       27.0000    54       34.0000      Fract: 6     1267   20.59%
*     0+    0                           31.0000       27.0000     1267   12.90%
*     0+    0                           30.0000       27.0000     1267   10.00%

Repeating presolve.
Tried aggregator 1 time.
MIP Presolve eliminated 0 rows and 17784 columns.
Reduced MIP has 550 rows, 7217 columns, and 14482 nonzeros.
Tried aggregator 1 time.
Represolve time =    0.44 sec.
Clique table members: 1042.
MIP emphasis: balance optimality and feasibility.
MIP search method: dynamic search.
Parallel mode: none, using 1 thread.
Root relaxation solution time =    0.19 sec.

        Nodes                                         Cuts/
   Node  Left     Objective  IInf  Best Integer     Best Node    ItCnt     Gap

      0     0       27.0000    98       30.0000       27.0000      953   10.00%
      0     2       27.0000    98       30.0000       27.0000      953   10.00%
    100   100       28.0000    60       30.0000       27.0000     5290   10.00%
    200   196       28.1062    96       30.0000       27.0000    10499   10.00%
*   220+  196                           29.0000       27.0000    11769    6.90%
    300   256       27.0000    77       29.0000       27.0000    18918    6.90%
    400   351       28.0000    77       29.0000       27.0000    24524    6.90%
    500   415    infeasible             29.0000       27.0000    39545    6.90%
*   514+  281                           28.0000       27.0000    43888    3.57%
    600   302       27.0000    74       28.0000       27.0000    51523    3.57%
    700   310       27.0000    76       28.0000       27.0000    64954    3.57%
    800   334       27.0000    92       28.0000       27.0000    77990    3.57%
    900   358       27.0000    64       28.0000       27.0000    89885    3.57%
   1000   405       27.0000    82       28.0000       27.0000   113029    3.57%
Elapsed time =  72.44 sec. (tree size =  4.23 MB, solutions = 6)
   1100   431       27.0000    99       28.0000       27.0000   160204    3.57%
*  1114+    1                           27.0000       27.0000   165033    0.00%

Cover cuts applied:  398
Mixed integer rounding cuts applied:  17
Zero-half cuts applied:  1
Gomory fractional cuts applied:  9

Solution pool: 7 solutions saved.

MIP - Integer optimal solution:  Objective = 2.7000000000e+001
Solution time =   97.17 sec.  Iterations = 165033  Nodes = 1114


Incumbent solution
Variable Name           Solution Value
Cmax                         27.000000
X_1_49                        1.000000
X_2_5                         1.000000
X_3_33                        1.000000
X_4_15                        1.000000
X_5_16                        1.000000
X_6_34                        1.000000
X_7_22                        1.000000
X_8_35                        1.000000
X_9_32                        1.000000
X_10_6                        1.000000
X_11_30                       1.000000
X_12_26                       1.000000
X_13_47                       1.000000
X_14_3                        1.000000
X_15_12                       1.000000
X_16_3                        1.000000
X_17_9                        1.000000
X_18_14                       1.000000
X_19_15                       1.000000
X_20_3                        1.000000
X_21_36                       1.000000
X_22_8                        1.000000
X_23_10                       1.000000
X_24_34                       1.000000
X_25_43                       1.000000
X_26_1                        1.000000
X_27_14                       1.000000
X_28_28                       1.000000
X_29_10                       1.000000
X_30_26                       1.000000
X_31_38                       1.000000
X_32_35                       1.000000
X_33_40                       1.000000
X_34_47                       1.000000
X_35_28                       1.000000
X_36_50                       1.000000
X_37_8                        1.000000
X_38_28                       1.000000
X_39_26                       1.000000
X_40_15                       1.000000
X_41_10                       1.000000
X_42_14                       1.000000
X_43_17                       1.000000
X_44_43                       1.000000
X_45_45                       1.000000
X_46_19                       1.000000
X_47_23                       1.000000
X_48_37                       1.000000
X_49_30                       1.000000
X_50_42                       1.000000
X_51_2                        1.000000
X_52_22                       1.000000
X_53_22                       1.000000
X_54_34                       1.000000
X_55_50                       1.000000
X_56_16                       1.000000
X_57_32                       1.000000
X_58_41                       1.000000
X_59_16                       1.000000
X_60_36                       1.000000
X_61_16                       1.000000
X_62_19                       1.000000
X_63_12                       1.000000
X_64_14                       1.000000
X_65_3                        1.000000
X_66_15                       1.000000
X_67_26                       1.000000
X_68_24                       1.000000
X_69_29                       1.000000
X_70_27                       1.000000
X_71_47                       1.000000
X_72_31                       1.000000
X_73_9                        1.000000
X_74_32                       1.000000
X_75_34                       1.000000
X_76_25                       1.000000
X_77_12                       1.000000
X_78_27                       1.000000
X_79_37                       1.000000
X_80_2                        1.000000
X_81_39                       1.000000
X_82_39                       1.000000
X_83_23                       1.000000
X_84_35                       1.000000
X_85_2                        1.000000
X_86_28                       1.000000
X_87_29                       1.000000
X_88_9                        1.000000
X_89_47                       1.000000
X_90_26                       1.000000
X_91_28                       1.000000
X_92_40                       1.000000
X_93_1                        1.000000
X_94_9                        1.000000
X_95_40                       1.000000
X_96_19                       1.000000
X_97_36                       1.000000
X_98_11                       1.000000
X_99_30                       1.000000
X_100_20                      1.000000
X_101_44                      1.000000
X_102_44                      1.000000
X_103_42                      1.000000
X_104_18                      1.000000
X_105_13                      1.000000
X_106_26                      1.000000
X_107_3                       1.000000
X_108_40                      1.000000
X_109_42                      1.000000
X_110_24                      1.000000
X_111_20                      1.000000
X_112_6                       1.000000
X_113_17                      1.000000
X_114_3                       1.000000
X_115_45                      1.000000
X_116_38                      1.000000
X_117_5                       1.000000
X_118_6                       1.000000
X_119_4                       1.000000
X_120_35                      1.000000
X_121_3                       1.000000
X_122_50                      1.000000
X_123_25                      1.000000
X_124_29                      1.000000
X_125_34                      1.000000
X_126_21                      1.000000
X_127_44                      1.000000
X_128_4                       1.000000
X_129_9                       1.000000
X_130_36                      1.000000
X_131_12                      1.000000
X_132_41                      1.000000
X_133_24                      1.000000
X_134_18                      1.000000
X_135_19                      1.000000
X_136_25                      1.000000
X_137_27                      1.000000
X_138_1                       1.000000
X_139_15                      1.000000
X_140_11                      1.000000
X_141_22                      1.000000
X_142_17                      1.000000
X_143_9                       1.000000
X_144_14                      1.000000
X_145_34                      1.000000
X_146_4                       1.000000
X_147_27                      1.000000
X_148_16                      1.000000
X_149_30                      1.000000
X_150_6                       1.000000
X_151_23                      1.000000
X_152_3                       1.000000
X_153_41                      1.000000
X_154_19                      1.000000
X_155_15                      1.000000
X_156_20                      1.000000
X_157_36                      1.000000
X_158_7                       1.000000
X_159_19                      1.000000
X_160_11                      1.000000
X_161_27                      1.000000
X_162_32                      1.000000
X_163_11                      1.000000
X_164_32                      1.000000
X_165_50                      1.000000
X_166_7                       1.000000
X_167_42                      1.000000
X_168_6                       1.000000
X_169_24                      1.000000
X_170_3                       1.000000
X_171_12                      1.000000
X_172_47                      1.000000
X_173_12                      1.000000
X_174_17                      1.000000
X_175_9                       1.000000
X_176_45                      1.000000
X_177_30                      1.000000
X_178_23                      1.000000
X_179_50                      1.000000
X_180_4                       1.000000
X_181_49                      1.000000
X_182_4                       1.000000
X_183_45                      1.000000
X_184_34                      1.000000
X_185_6                       1.000000
X_186_33                      1.000000
X_187_17                      1.000000
X_188_34                      1.000000
X_189_42                      1.000000
X_190_1                       1.000000
X_191_44                      1.000000
X_192_28                      1.000000
X_193_33                      1.000000
X_194_2                       1.000000
X_195_36                      1.000000
X_196_49                      1.000000
X_197_26                      1.000000
X_198_13                      1.000000
X_199_2                       1.000000
X_200_47                      1.000000
X_201_47                      1.000000
X_202_39                      1.000000
X_203_40                      1.000000
X_204_39                      1.000000
X_205_8                       1.000000
X_206_11                      1.000000
X_207_35                      1.000000
X_208_21                      1.000000
X_209_23                      1.000000
X_210_13                      1.000000
X_211_21                      1.000000
X_212_33                      1.000000
X_213_5                       1.000000
X_214_17                      1.000000
X_215_18                      1.000000
X_216_10                      1.000000
X_217_27                      1.000000
X_218_3                       1.000000
X_219_35                      1.000000
X_220_35                      1.000000
X_221_12                      1.000000
X_222_41                      1.000000
X_223_39                      1.000000
X_224_8                       1.000000
X_225_26                      1.000000
X_226_46                      1.000000
X_227_22                      1.000000
X_228_45                      1.000000
X_229_49                      1.000000
X_230_12                      1.000000
X_231_26                      1.000000
X_232_17                      1.000000
X_233_17                      1.000000
X_234_29                      1.000000
X_235_8                       1.000000
X_236_39                      1.000000
X_237_34                      1.000000
X_238_20                      1.000000
X_239_45                      1.000000
X_240_48                      1.000000
X_241_6                       1.000000
X_242_32                      1.000000
X_243_27                      1.000000
X_244_30                      1.000000
X_245_30                      1.000000
X_246_5                       1.000000
X_247_8                       1.000000
X_248_18                      1.000000
X_249_17                      1.000000
X_250_18                      1.000000
X_251_7                       1.000000
X_252_19                      1.000000
X_253_43                      1.000000
X_254_46                      1.000000
X_255_47                      1.000000
X_256_23                      1.000000
X_257_18                      1.000000
X_258_47                      1.000000
X_259_18                      1.000000
X_260_38                      1.000000
X_261_21                      1.000000
X_262_31                      1.000000
X_263_16                      1.000000
X_264_28                      1.000000
X_265_44                      1.000000
X_266_2                       1.000000
X_267_3                       1.000000
X_268_41                      1.000000
X_269_37                      1.000000
X_270_46                      1.000000
X_271_13                      1.000000
X_272_39                      1.000000
X_273_20                      1.000000
X_274_24                      1.000000
X_275_16                      1.000000
X_276_37                      1.000000
X_277_10                      1.000000
X_278_41                      1.000000
X_279_13                      1.000000
X_280_38                      1.000000
X_281_10                      1.000000
X_282_5                       1.000000
X_283_11                      1.000000
X_284_46                      1.000000
X_285_21                      1.000000
X_286_4                       1.000000
X_287_12                      1.000000
X_288_22                      1.000000
X_289_21                      1.000000
X_290_49                      1.000000
X_291_20                      1.000000
X_292_16                      1.000000
X_293_41                      1.000000
X_294_42                      1.000000
X_295_18                      1.000000
X_296_36                      1.000000
X_297_1                       1.000000
X_298_11                      1.000000
X_299_37                      1.000000
X_300_44                      1.000000
X_301_11                      1.000000
X_302_50                      1.000000
X_303_27                      1.000000
X_304_23                      1.000000
X_305_24                      1.000000
X_306_25                      1.000000
X_307_43                      1.000000
X_308_3                       1.000000
X_309_19                      1.000000
X_310_28                      1.000000
X_311_6                       1.000000
X_312_38                      1.000000
X_313_2                       1.000000
X_314_32                      1.000000
X_315_25                      1.000000
X_316_10                      1.000000
X_317_1                       1.000000
X_318_34                      1.000000
X_319_26                      1.000000
X_320_41                      1.000000
X_321_11                      1.000000
X_322_13                      1.000000
X_323_46                      1.000000
X_324_24                      1.000000
X_325_28                      1.000000
X_326_5                       1.000000
X_327_19                      1.000000
X_328_44                      1.000000
X_329_1                       1.000000
X_330_21                      1.000000
X_331_48                      1.000000
X_332_27                      1.000000
X_333_29                      1.000000
X_334_15                      1.000000
X_335_47                      1.000000
X_336_11                      1.000000
X_337_38                      1.000000
X_338_14                      1.000000
X_339_10                      1.000000
X_340_38                      1.000000
X_341_13                      1.000000
X_342_1                       1.000000
X_343_9                       1.000000
X_344_7                       1.000000
X_345_35                      1.000000
X_346_7                       1.000000
X_347_4                       1.000000
X_348_38                      1.000000
X_349_46                      1.000000
X_350_3                       1.000000
X_351_48                      1.000000
X_352_22                      1.000000
X_353_11                      1.000000
X_354_32                      1.000000
X_355_5                       1.000000
X_356_34                      1.000000
X_357_16                      1.000000
X_358_50                      1.000000
X_359_4                       1.000000
X_360_37                      1.000000
X_361_37                      1.000000
X_362_15                      1.000000
X_363_31                      1.000000
X_364_9                       1.000000
X_365_49                      1.000000
X_366_4                       1.000000
X_367_33                      1.000000
X_368_41                      1.000000
X_369_2                       1.000000
X_370_13                      1.000000
X_371_32                      1.000000
X_372_4                       1.000000
X_373_6                       1.000000
X_374_3                       1.000000
X_375_6                       1.000000
X_376_20                      1.000000
X_377_35                      1.000000
X_378_2                       1.000000
X_379_2                       1.000000
X_380_22                      1.000000
X_381_24                      1.000000
X_382_46                      1.000000
X_383_49                      1.000000
X_384_10                      1.000000
X_385_36                      1.000000
X_386_45                      1.000000
X_387_40                      1.000000
X_388_13                      1.000000
X_389_10                      1.000000
X_390_23                      1.000000
X_391_39                      1.000000
X_392_31                      1.000000
X_393_34                      1.000000
X_394_46                      1.000000
X_395_21                      1.000000
X_396_13                      1.000000
X_397_25                      1.000000
X_398_40                      1.000000
X_399_33                      1.000000
X_400_12                      1.000000
X_401_42                      1.000000
X_402_31                      1.000000
X_403_41                      1.000000
X_404_49                      1.000000
X_405_34                      1.000000
X_406_12                      1.000000
X_407_26                      1.000000
X_408_29                      1.000000
X_409_43                      1.000000
X_410_13                      1.000000
X_411_43                      1.000000
X_412_20                      1.000000
X_413_45                      1.000000
X_414_30                      1.000000
X_415_50                      1.000000
X_416_27                      1.000000
X_417_15                      1.000000
X_418_48                      1.000000
X_419_22                      1.000000
X_420_22                      1.000000
X_421_25                      1.000000
X_422_30                      1.000000
X_423_47                      1.000000
X_424_34                      1.000000
X_425_22                      1.000000
X_426_50                      1.000000
X_427_31                      1.000000
X_428_46                      1.000000
X_429_1                       1.000000
X_430_19                      1.000000
X_431_48                      1.000000
X_432_2                       1.000000
X_433_28                      1.000000
X_434_7                       1.000000
X_435_16                      1.000000
X_436_27                      1.000000
X_437_46                      1.000000
X_438_43                      1.000000
X_439_1                       1.000000
X_440_22                      1.000000
X_441_15                      1.000000
X_442_11                      1.000000
X_443_35                      1.000000
X_444_34                      1.000000
X_445_7                       1.000000
X_446_16                      1.000000
X_447_5                       1.000000
X_448_38                      1.000000
X_449_47                      1.000000
X_450_24                      1.000000
X_451_10                      1.000000
X_452_24                      1.000000
X_453_23                      1.000000
X_454_25                      1.000000
X_455_32                      1.000000
X_456_23                      1.000000
X_457_18                      1.000000
X_458_40                      1.000000
X_459_33                      1.000000
X_460_42                      1.000000
X_461_2                       1.000000
X_462_23                      1.000000
X_463_7                       1.000000
X_464_42                      1.000000
X_465_15                      1.000000
X_466_31                      1.000000
X_467_50                      1.000000
X_468_14                      1.000000
X_469_27                      1.000000
X_470_23                      1.000000
X_471_43                      1.000000
X_472_21                      1.000000
X_473_38                      1.000000
X_474_24                      1.000000
X_475_21                      1.000000
X_476_50                      1.000000
X_477_34                      1.000000
X_478_21                      1.000000
X_479_14                      1.000000
X_480_41                      1.000000
X_481_39                      1.000000
X_482_48                      1.000000
X_483_31                      1.000000
X_484_45                      1.000000
X_485_19                      1.000000
X_486_7                       1.000000
X_487_5                       1.000000
X_488_27                      1.000000
X_489_18                      1.000000
X_490_15                      1.000000
X_491_14                      1.000000
X_492_8                       1.000000
X_493_16                      1.000000
X_494_10                      1.000000
X_495_39                      1.000000
X_496_28                      1.000000
X_497_37                      1.000000
X_498_7                       1.000000
X_499_3                       1.000000
X_500_34                      1.000000
All other variables in the range 1-25001 are 0.
